J = 5;
K = 5;
Ej = [ 100,200,95,150,89 ];
Aj = [ 1,0.5,1.3,0.2,0.1 ];
Gj = [ 0,0,0,0,0 ];
Fj = [ 35,31,26,29,38 ];
Vj = [ 0.100,0.125,0.150,0.115,0.165 ];
Pj = [ 60,90,55,30,75 ];
Pj_max = [ 200,120,80,230,450 ];
Supj = [ 280,200,150,190,330 ];
Infj = [ 300,150,100,250,300 ];
P0j = [ 0,0,0,0,0 ];
Dk = [ 150,100,200,50,250 ];
Rk = [ 25,60,55,65,80 ];